
<<< setup


<<< generate

Version identifier: 22.1.1.0 | 2022-11-27 | 9160aff4d
Tried aggregator 1 time.
MIQCP Presolve eliminated 416 rows and 1 columns.
MIQCP Presolve modified 1090 coefficients.
Reduced MIQCP has 4126 rows, 3790 columns, and 41010 nonzeros.
Reduced MIQCP has 210 binaries, 0 generals, 0 SOSs, and 0 indicators.
Reduced MIQCP has 598 quadratic constraints.
Presolve time = 0,14 sec. (132,58 ticks)
Probing fixed 0 vars, tightened 2453 bounds.
Probing time = 0,08 sec. (70,12 ticks)
Clique table members: 924.
MIP emphasis: balance optimality and feasibility.
MIP search method: dynamic search.
Parallel mode: deterministic, using up to 12 threads.
Root relaxation solution time = 0,03 sec. (61,33 ticks)

        Nodes                                         Cuts/
   Node  Left     Objective  IInf  Best Integer    Best Bound    ItCnt     Gap

      0     0     4012,8700     0                  12574,6668      348         
      0     0     4006,0197   152                     Cone: 1      504         
      0     0     4000,0252   183                     Cone: 2      682         
      0     0     3996,2394   181                     Cone: 3      820         
      0     0     3993,7265   187                     Cone: 4      966         
      0     0     3991,0298   192                     Cone: 5     1138         
      0     0     3989,2665   189                     Cone: 6     1282         
